Route #1: 26 17 12 40 32 44 3 51 6 2 68
Route #2: 30 48 47 36 37 20 70 60 71 69 21 61 28
Route #3: 74 62 22 64 42 43 41 56 23 63 1 73 33
Route #4: 16 49 24 18 50 25 55 31 9 39 72 58
Route #5: 10 38 65 66 11 59 14 53 35
Route #6: 7 8 19 54 13 57 15 5 29 45 27 52 46
Route #7: 67 34 4 75
Cost 725